#######################################################
#CASTEP cell file: ethanol.cell
#Created using the Atomic Simulation Environment (ASE)#
#######################################################

%BLOCK LATTICE_CART
 6.000000  0.000000  0.000000
 0.000000  6.000000  0.000000
 0.000000  0.000000  6.000000
%ENDBLOCK LATTICE_CART

%BLOCK POSITIONS_ABS
H  2.129659  2.823711  2.349943
H  3.182454  2.075799  3.559623
H  3.868130  3.197626  2.370217
H  1.869295  3.974874  4.564773
H  2.561231  5.078941  3.371865
H  4.060671  3.677653  5.297066
C  2.996000  2.996000  2.996000
C  2.752085  4.164107  3.937396
O  3.895314  4.458074  4.741964
%ENDBLOCK POSITIONS_ABS

