%BLOCK LATTICE_ABC
10.0 14.1421356 10.0
90   90   45
%ENDBLOCK LATTICE_ABC

%BLOCK POSITIONS_FRAC
H   0.5     0.5     0.5
%ENDBLOCK POSITIONS_FRAC